Version identifier: 12.10.0.0 | 2019-11-26 | 843d4de
CPXPARAM_WorkMem                                 28672
Tried aggregator 2 times.
Aggregator did 60 substitutions.
Reduced MIP has 203 rows, 240 columns, and 906 nonzeros.
Reduced MIP has 240 binaries, 0 generals, 0 SOSs, and 0 indicators.
Presolve time = 0,00 sec. (0,88 ticks)
Found incumbent of value 180,000000 after 0,00 sec. (1,44 ticks)
Probing time = 0,00 sec. (0,31 ticks)
Tried aggregator 1 time.
Detecting symmetries...
MIP Presolve eliminated 48 rows and 0 columns.
MIP Presolve added 96 rows and 0 columns.
Reduced MIP has 251 rows, 240 columns, and 954 nonzeros.
Reduced MIP has 240 binaries, 0 generals, 0 SOSs, and 0 indicators.
Presolve time = 0,00 sec. (1,11 ticks)
Probing time = 0,00 sec. (0,30 ticks)
Clique table members: 626.
MIP emphasis: balance optimality and feasibility.
MIP search method: dynamic search.
Parallel mode: deterministic, using up to 16 threads.
Root relaxation solution time = 0,00 sec. (1,35 ticks)

        Nodes                                         Cuts/
   Node  Left     Objective  IInf  Best Integer    Best Bound    ItCnt     Gap

*     0+    0                          180,0000        0,0000           100,00%
*     0+    0                          134,0000        0,0000           100,00%
*     0+    0                          128,0000        0,0000           100,00%
*     0+    0                          125,0000        0,0000           100,00%
      0     0       60,0000   219      125,0000       60,0000      129   52,00%
      0     0       60,7060   219      125,0000     Cuts: 162      215   51,44%
      0     0       61,4296   219      125,0000     Cuts: 162      253   50,86%
*     0+    0                          124,0000       61,4296            50,46%
      0     0       61,8668   219      124,0000     Cuts: 162      276   50,11%
      0     0       62,1413   219      124,0000      Cuts: 12      309   49,89%
      0     0       62,1507   219      124,0000   ZeroHalf: 5      324   49,88%
      0     0       62,1902   219      124,0000       Cuts: 2      354   49,85%
      0     0       62,2089   219      124,0000      Cuts: 67      361   49,83%
      0     0       62,2096   219      124,0000      Fract: 1      362   49,83%
*     0+    0                          114,0000       62,2096            45,43%
      0     0       62,2170   219      114,0000   ZeroHalf: 1      380   41,71%
      0     2       62,2170   240      114,0000       66,4452      380   41,71%
Elapsed time = 0,32 sec. (131,53 ticks, tree = 0,02 MB, solutions = 6)
*   140+   12                          110,0000       68,1685            38,03%
   4367  2751        cutoff            110,0000       89,5057   117061   18,63%

Performing restart 1

Repeating presolve.
Tried aggregator 1 time.
Reduced MIP has 251 rows, 240 columns, and 954 nonzeros.
Reduced MIP has 240 binaries, 0 generals, 0 SOSs, and 0 indicators.
Presolve time = 0,00 sec. (0,57 ticks)
Tried aggregator 1 time.
Reduced MIP has 251 rows, 240 columns, and 954 nonzeros.
Reduced MIP has 240 binaries, 0 generals, 0 SOSs, and 0 indicators.
Presolve time = 0,00 sec. (0,78 ticks)
Represolve time = 0,01 sec. (6,66 ticks)
   4594     0       63,4965   240      110,0000      Cuts: 18   135397   17,80%
   4594     0       64,2563   240      110,0000      Cuts: 13   135492   17,80%
   4594     0       64,7920   240      110,0000       Cuts: 8   135580   17,80%
   4594     0       65,3598   240      110,0000      Cuts: 12   135691   17,80%
   4594     0       65,8406   240      110,0000      Cuts: 11   135752   17,80%
   4594     2       65,8406   240      110,0000       90,4192   135752   17,80%
   5431   411      101,9709   157      110,0000       90,4192   156334   17,80%
   7666  2020      102,4170   154      110,0000       90,4192   211007   17,80%

Performing restart 2

Repeating presolve.
Tried aggregator 1 time.
Reduced MIP has 251 rows, 240 columns, and 954 nonzeros.
Reduced MIP has 240 binaries, 0 generals, 0 SOSs, and 0 indicators.
Presolve time = 0,00 sec. (0,57 ticks)
Tried aggregator 1 time.
Reduced MIP has 251 rows, 240 columns, and 954 nonzeros.
Reduced MIP has 240 binaries, 0 generals, 0 SOSs, and 0 indicators.
Presolve time = 0,00 sec. (0,78 ticks)
Represolve time = 0,02 sec. (16,87 ticks)
  10579     0       67,0030   240      110,0000       Cuts: 7   281707   17,80%
  10579     0       67,2795   240      110,0000      Cuts: 13   281791   17,80%
  10579     0       67,4602   240      110,0000       Cuts: 4   281862   17,80%
  10579     0       67,6277   240      110,0000       Cuts: 8   281963   17,80%
  10579     0       67,8483   240      110,0000       Cuts: 6   282057   17,80%
  10579     0       68,0345   240      110,0000      Cuts: 10   282124   17,80%
  10579     0       68,3072   240      110,0000      Cuts: 13   282208   17,80%
  10579     2       68,3072   239      110,0000       90,4192   282208   17,80%
  13420  1515      106,8167    20      110,0000       90,4192   332061   17,80%
  16433  3529        cutoff            110,0000       93,5744   408937   14,93%
  19619  4919      101,7179   137      110,0000       96,3058   478364   12,45%
  22656  6015        cutoff            110,0000       98,5384   566640   10,42%
  34449  3119    infeasible            110,0000      105,8137   862074    3,81%
Elapsed time = 5,27 sec. (3821,10 ticks, tree = 6,48 MB, solutions = 7)

Clique cuts applied:  48
Cover cuts applied:  381
Flow cuts applied:  4
Mixed integer rounding cuts applied:  21
Zero-half cuts applied:  1
Lift and project cuts applied:  16
Gomory fractional cuts applied:  46

Root node processing (before b&c):
  Real time             =    0,31 sec. (131,14 ticks)
Parallel b&c, 16 threads:
  Real time             =    5,44 sec. (3835,25 ticks)
  Sync time (average)   =    1,53 sec.
  Wait time (average)   =    0,01 sec.
                          ------------
Total (root+branch&cut) =    5,75 sec. (3966,39 ticks)
